(set-logic ALL)
(declare-var c (BitVec 32))
(declare-var c! (BitVec 32))
(declare-var conf_0 (BitVec 32))
(declare-var conf_0! (BitVec 32))
(declare-var conf_1 (BitVec 32))
(declare-var conf_1! (BitVec 32))
(declare-var conf_2 (BitVec 32))
(declare-var conf_2! (BitVec 32))
(declare-var conf_3 (BitVec 32))
(declare-var conf_3! (BitVec 32))
(declare-var conf_4 (BitVec 32))
(declare-var conf_4! (BitVec 32))
(declare-var tmp (BitVec 32))
(declare-var tmp! (BitVec 32))
(declare-var c_0 (BitVec 32))
(declare-var c_0! (BitVec 32))
(declare-var c_1 (BitVec 32))
(declare-var c_1! (BitVec 32))
(declare-var c_2 (BitVec 32))
(declare-var c_2! (BitVec 32))
(declare-var c_3 (BitVec 32))
(declare-var c_3! (BitVec 32))
(declare-var c_4 (BitVec 32))
(declare-var c_4! (BitVec 32))
(declare-var c_5 (BitVec 32))
(declare-var c_5! (BitVec 32))
(declare-var conf_0_0 (BitVec 32))
(declare-var conf_0_0! (BitVec 32))
(declare-var conf_1_0 (BitVec 32))
(declare-var conf_1_0! (BitVec 32))
(declare-var conf_2_0 (BitVec 32))
(declare-var conf_2_0! (BitVec 32))
(declare-var conf_3_0 (BitVec 32))
(declare-var conf_3_0! (BitVec 32))
(declare-var conf_3_1 (BitVec 32))
(declare-var conf_3_1! (BitVec 32))
(declare-var conf_3_2 (BitVec 32))
(declare-var conf_3_2! (BitVec 32))
(declare-var conf_3_3 (BitVec 32))
(declare-var conf_3_3! (BitVec 32))
(declare-var conf_4_0 (BitVec 32))
(declare-var conf_4_0! (BitVec 32))
(declare-var conf_4_1 (BitVec 32))
(declare-var conf_4_1! (BitVec 32))
(declare-var conf_4_2 (BitVec 32))
(declare-var conf_4_2! (BitVec 32))
(declare-var conf_4_3 (BitVec 32))
(declare-var conf_4_3! (BitVec 32))
(synth-fun inv-f((parameter0 (BitVec 32))(parameter1 (BitVec 32))(parameter2 (BitVec 32))(parameter3 (BitVec 32))(parameter4 (BitVec 32))(parameter5 (BitVec 32))(parameter6 (BitVec 32))(parameter7 (BitVec 32))(parameter8 (BitVec 32))(parameter9 (BitVec 32))(parameter10 (BitVec 32))(parameter11 (BitVec 32))(parameter12 (BitVec 32))(parameter13 (BitVec 32))(parameter14 (BitVec 32))(parameter15 (BitVec 32))(parameter16 (BitVec 32))(parameter17 (BitVec 32))(parameter18 (BitVec 32))(parameter19 (BitVec 32))(parameter20 (BitVec 32))(parameter21 (BitVec 32))(parameter22 (BitVec 32))(parameter23 (BitVec 32)))Bool) 
(constraint (=> (and (and (and (and (and (and (and (and (and (and (and (= c c_1) (= conf_0 conf_0_0) ) (= conf_1 conf_1_0) ) (= conf_2 conf_2_0) ) (= conf_3 conf_3_0) ) (= conf_4 conf_4_0) ) (= conf_0_0 (_ bv3 32)) ) (= conf_1_0 (_ bv0 32)) ) (= conf_2_0 (_ bv9 32)) ) (= conf_3_0 (_ bv6 32)) ) (= conf_4_0 (_ bv4 32)) ) (= c_1 (_ bv0 32)) )(inv-f c conf_0 conf_1 conf_2 conf_3 conf_4 tmp c_0 c_1 c_2 c_3 c_4 c_5 conf_0_0 conf_1_0 conf_2_0 conf_3_0 conf_3_1 conf_3_2 conf_3_3 conf_4_0 conf_4_1 conf_4_2 conf_4_3 )))
(constraint (=> (and (inv-f c conf_0 conf_1 conf_2 conf_3 conf_4 tmp c_0 c_1 c_2 c_3 c_4 c_5 conf_0_0 conf_1_0 conf_2_0 conf_3_0 conf_3_1 conf_3_2 conf_3_3 conf_4_0 conf_4_1 conf_4_2 conf_4_3 ) (or (or (or (or (and (and (and (and (and (and (and (and (and (and (and (and (= c_2 c) (= conf_3_1 conf_3) ) (= conf_4_1 conf_4) ) (= c_2 c!) ) (= conf_3_1 conf_3!) ) (= conf_4_1 conf_4!) ) (= c c!) ) (= conf_0 conf_0!) ) (= conf_1 conf_1!) ) (= conf_2 conf_2!) ) (= conf_3 conf_3!) ) (= conf_4 conf_4!) ) (= tmp tmp!) ) (and (and (and (and (and (and (and (and (and (and (and (and (and (and (and (and (and (and (= c_2 c) (= conf_3_1 conf_3) ) (= conf_4_1 conf_4) ) (not (= c_2 (_ bv40 32))) ) (= c_3 (bvadd c_2 (_ bv1 32))) ) (= conf_4_2 (_ bv843 32)) ) (= c_4 c_3) ) (= conf_3_2 conf_3_1) ) (= conf_4_3 conf_4_2) ) (= c_4 c!) ) (= conf_3_2 conf_3!) ) (= conf_4_3 conf_4!) ) (= conf_0 conf_0_0) ) (= conf_0! conf_0_0) ) (= conf_1 conf_1_0) ) (= conf_1! conf_1_0) ) (= conf_2 conf_2_0) ) (= conf_2! conf_2_0) ) (= tmp tmp!) ) ) (and (and (and (and (and (and (and (and (and (and (and (and (and (and (and (and (= c_2 c) (= conf_3_1 conf_3) ) (= conf_4_1 conf_4) ) (not (not (= c_2 (_ bv40 32)))) ) (= c_4 c_2) ) (= conf_3_2 conf_3_1) ) (= conf_4_3 conf_4_1) ) (= c_4 c!) ) (= conf_3_2 conf_3!) ) (= conf_4_3 conf_4!) ) (= conf_0 conf_0_0) ) (= conf_0! conf_0_0) ) (= conf_1 conf_1_0) ) (= conf_1! conf_1_0) ) (= conf_2 conf_2_0) ) (= conf_2! conf_2_0) ) (= tmp tmp!) ) ) (and (and (and (and (and (and (and (and (and (and (and (and (and (and (and (and (and (and (= c_2 c) (= conf_3_1 conf_3) ) (= conf_4_1 conf_4) ) (= c_2 (_ bv40 32)) ) (= c_5 (_ bv1 32)) ) (= conf_3_3 (_ bv121 32)) ) (= c_4 c_5) ) (= conf_3_2 conf_3_3) ) (= conf_4_3 conf_4_1) ) (= c_4 c!) ) (= conf_3_2 conf_3!) ) (= conf_4_3 conf_4!) ) (= conf_0 conf_0_0) ) (= conf_0! conf_0_0) ) (= conf_1 conf_1_0) ) (= conf_1! conf_1_0) ) (= conf_2 conf_2_0) ) (= conf_2! conf_2_0) ) (= tmp tmp!) ) ) (and (and (and (and (and (and (and (and (and (and (and (and (and (and (and (and (= c_2 c) (= conf_3_1 conf_3) ) (= conf_4_1 conf_4) ) (not (= c_2 (_ bv40 32))) ) (= c_4 c_2) ) (= conf_3_2 conf_3_1) ) (= conf_4_3 conf_4_1) ) (= c_4 c!) ) (= conf_3_2 conf_3!) ) (= conf_4_3 conf_4!) ) (= conf_0 conf_0_0) ) (= conf_0! conf_0_0) ) (= conf_1 conf_1_0) ) (= conf_1! conf_1_0) ) (= conf_2 conf_2_0) ) (= conf_2! conf_2_0) ) (= tmp tmp!) ) ) )(inv-f c! conf_0! conf_1! conf_2! conf_3! conf_4! tmp! c_0! c_1! c_2! c_3! c_4! c_5! conf_0_0! conf_1_0! conf_2_0! conf_3_0! conf_3_1! conf_3_2! conf_3_3! conf_4_0! conf_4_1! conf_4_2! conf_4_3! )))
(constraint (=> (inv-f c conf_0 conf_1 conf_2 conf_3 conf_4 tmp c_0 c_1 c_2 c_3 c_4 c_5 conf_0_0 conf_1_0 conf_2_0 conf_3_0 conf_3_1 conf_3_2 conf_3_3 conf_4_0 conf_4_1 conf_4_2 conf_4_3 )(or (not (and (and (and (and (and (= c c_2) (= conf_0 conf_0_0) ) (= conf_1 conf_1_0) ) (= conf_2 conf_2_0) ) (= conf_3 conf_3_1) ) (= conf_4 conf_4_1) )) (not (and (and (bvult c_2 (_ bv0 32)) (bvugt c_2 (_ bv40 32)) ) (not (= c_2 (_ bv40 32))) )) )))
(check-synth)

